(set-logic QF_LRA)
(declare-fun x1 () Real)
(declare-fun x2 () Real)
(declare-fun x3 () Real)
(declare-fun x4 () Real)
(declare-fun x5 () Real)
(declare-fun x6 () Real)
(declare-fun x7 () Real)
(declare-fun x8 () Real)
(declare-fun x9 () Real)
(declare-fun x10 () Real)

(assert (>= (- -5 ( + ( + (* -10 x2) (* 8 x1) ) (* 5 x3) )) 0))
(assert (>= (- -3 ( + ( + (* -9 x1) (* -8 x3) ) (* -1 x4) )) 0))
(assert (>= (- -1 ( + ( + (* -1 x3) (* -7 x2) ) (* 4 x5) )) 0))
(assert (>= (- -6 ( + ( + (* -5 x6) (* 10 x3) ) (* -2 x1) )) 0))
(assert (>= (- 3 ( + ( + (* 2 x7) (* 4 x1) ) (* 2 x3) )) 0))
(assert (>= (- 4 ( + ( + (* -7 x1) (* 8 x4) ) (* 9 x8) )) 0))
(assert (>= (- 3 ( + ( + (* 6 x3) (* -4 x1) ) (* -5 x9) )) 0))
(assert (>= (- 10 ( + ( + (* -10 x8) (* -1 x4) ) (* 6 x10) )) 0))
(assert (>= (- -8 ( + ( + (* 4 x10) (* 3 x4) ) (* -4 x8) )) 0))
(assert (>= (- -7 (* 5 x2)) 0))
(assert (>= (- 7 ( + ( + x1 (* -6 x3) ) (* 7 x6) )) 0))
(assert (>= (- -9 ( + (* 9 x3) (* -6 x7) )) 0))
(assert (>= (- -8 (* 8 x1)) 0))
(assert (>= (- 5 ( + (* -10 x4) (* -6 x1) )) 0))
(assert (>= (- 0 ( + (* -4 x3) (* 4 x5) )) 0))
(assert (>= (- -7 (* 4 x1)) 0))
(assert (>= (- -9 (* -1 x3)) 0))
(assert (>= (- -5 ( + ( + x1 (* -5 x2) ) x3 )) 0))
(assert (>= (- -1 ( + ( + (* -7 x9) (* 5 x1) ) (* -10 x3) )) 0))
(assert (>= (- -3 (* 6 x10)) 0))
(check-sat)
(exit)